(set-logic ALL)
(declare-const BAV1 Bool)
(declare-const BAV2 Bool)
(set-info :smt-lib-version 2.0)
(set-info :category "crafted")
(declare-fun v0 () (_ BitVec 4))
(declare-fun v1 () (_ BitVec 4))
(declare-fun f ((_ BitVec 4)) (_ BitVec 4))
(declare-fun g ((_ BitVec 4)) (_ BitVec 4))
(declare-fun h ((_ BitVec 4)) (_ BitVec 4))
(assert (not (= (f (g (h v0))) (f (g (h v1))))))
(assert (= v0 v1))
(assert (= BAV1 (= (f (g (h v0))) (f (g (h v1))))))
(assert (= BAV2 (= v0 v1)))
(check-sat)
(get-model)
(exit)